data;


param d:= 100;
param r:=5;
param p:=0.400000;
param M:=1000;
param U:=
         1         1       -9.549315e-01
         2         1        9.144458e-01
         3         1       -1.743404e-01
         4         1       -5.873410e-01
         5         1        9.213561e-01
         6         1        6.126776e-01
         7         1        9.587709e-01
         8         1        6.886973e-01
         9         1       -2.508987e+00
        10         1       -1.224333e+00
        11         1        3.850275e-01
        12         1        4.359394e-01
        13         1       -2.837735e-01
        14         1        2.347857e-02
        15         1        1.103120e+00
        16         1       -7.882357e-01
        17         1        1.390424e+00
        18         1        4.664736e-01
        19         1        6.840157e-01
        20         1        1.174005e+00
        21         1       -2.275934e-01
        22         1        4.832939e-02
        23         1       -7.218018e-01
        24         1       -2.200610e+00
        25         1        7.918787e-01
        26         1        1.398529e+00
        27         1        1.192443e-01
        28         1       -1.168408e+00
        29         1        1.743292e+00
        30         1        1.288399e+00
        31         1        7.792299e-01
        32         1        3.192612e-01
        33         1        5.619585e-01
        34         1        9.670908e-01
        35         1        1.815252e+00
        36         1        5.529896e-01
        37         1       -1.597515e+00
        38         1       -5.361445e-01
        39         1        7.771170e-02
        40         1       -9.933380e-02
        41         1       -1.239578e+00
        42         1        7.051595e-01
        43         1       -2.559497e-01
        44         1       -1.662246e+00
        45         1        4.703694e-01
        46         1        5.232260e-01
        47         1       -1.826581e+00
        48         1        1.197428e+00
        49         1       -4.309944e-02
        50         1       -1.312117e+00
        51         1       -6.175588e-01
        52         1        1.026796e-01
        53         1       -2.071023e+00
        54         1       -1.678488e+00
        55         1        5.855238e-01
        56         1        6.438654e-01
        57         1        1.067683e-01
        58         1       -9.254267e-01
        59         1       -1.714985e+00
        60         1        1.227645e+00
        61         1       -1.330956e+00
        62         1       -6.721117e-02
        63         1       -1.068219e-01
        64         1       -2.129020e+00
        65         1       -1.805656e+00
        66         1        1.042572e-01
        67         1       -4.256424e-01
        68         1       -2.303531e-01
        69         1        9.705229e-01
        70         1       -2.634207e-01
        71         1       -5.883111e-01
        72         1        2.647528e-01
        73         1       -2.314424e-02
        74         1       -1.048563e-01
        75         1        3.266344e-01
        76         1        7.165811e-01
        77         1       -1.094911e+00
        78         1        4.331118e-01
        79         1       -5.078966e-01
        80         1        7.009474e-01
        81         1        1.068768e+00
        82         1       -4.265138e-01
        83         1        6.192082e-01
        84         1        3.786869e-02
        85         1       -9.134828e-01
        86         1       -3.559223e-01
        87         1       -3.371956e-01
        88         1       -6.786627e-01
        89         1        6.493046e-01
        90         1       -3.933554e-01
        91         1       -7.724522e-01
        92         1        1.850459e+00
        93         1       -7.272371e-01
        94         1       -8.951051e-01
        95         1        3.306256e-01
        96         1        7.298140e-01
        97         1       -1.018301e+00
        98         1       -6.005312e-01
        99         1       -4.768580e-01
       100         1       -1.350271e+00
         1         2       -1.299517e+00
         2         2       -7.019160e-01
         3         2       -1.810860e+00
         4         2       -2.341975e-01
         5         2       -9.800031e-02
         6         2        9.833101e-01
         7         2        5.282399e-01
         8         2        3.936763e-01
         9         2        9.135238e-01
        10         2        1.671806e-01
        11         2        1.165719e+00
        12         2        1.212539e+00
        13         2       -2.267487e-01
        14         2       -1.195048e+00
        15         2        2.026488e-01
        16         2        1.648953e+00
        17         2        2.051010e-01
        18         2        7.990651e-01
        19         2        1.941874e-02
        20         2       -4.323036e-01
        21         2       -3.132957e-01
        22         2       -1.015126e-01
        23         2        1.361732e+00
        24         2       -5.517112e-01
        25         2       -1.298147e+00
        26         2        2.393685e+00
        27         2        1.275935e+00
        28         2        5.650427e-01
        29         2       -2.469158e-01
        30         2        7.512863e-01
        31         2        7.875531e-01
        32         2       -7.548866e-01
        33         2        6.078564e-01
        34         2        5.352847e-01
        35         2       -7.448011e-02
        36         2        1.914100e+00
        37         2        9.937507e-01
        38         2        8.892501e-01
        39         2       -5.576967e-01
        40         2        1.184486e+00
        41         2        1.206612e-01
        42         2        6.926073e-03
        43         2       -3.371556e-01
        44         2        7.840522e-01
        45         2       -7.669267e-01
        46         2       -3.910579e-01
        47         2        4.803537e-01
        48         2        4.327600e-01
        49         2        3.910516e-02
        50         2        4.562943e-02
        51         2       -5.121365e-01
        52         2        1.487306e+00
        53         2        1.142940e+00
        54         2       -6.127245e-01
        55         2       -1.334912e+00
        56         2        1.897415e+00
        57         2        8.468810e-01
        58         2        5.959104e-01
        59         2        7.186841e-01
        60         2       -2.158614e+00
        61         2        5.239557e-01
        62         2       -1.018071e+00
        63         2        7.821682e-01
        64         2        1.616184e+00
        65         2       -8.192391e-01
        66         2        5.887981e-01
        67         2        1.931395e-01
        68         2        3.919243e-01
        69         2       -3.669421e-01
        70         2       -1.467999e+00
        71         2       -1.642880e+00
        72         2        7.384659e-01
        73         2        2.863726e-01
        74         2       -1.830119e+00
        75         2        1.084388e+00
        76         2       -4.181352e-01
        77         2       -7.866945e-01
        78         2       -8.037276e-01
        79         2       -5.224501e-01
        80         2        1.174433e+00
        81         2       -2.107879e+00
        82         2        1.132832e+00
        83         2       -3.037856e-01
        84         2       -2.763279e-01
        85         2       -8.480795e-02
        86         2        3.666158e-01
        87         2        7.828639e-01
        88         2       -2.336971e-01
        89         2       -1.593652e+00
        90         2        4.706593e-01
        91         2        1.915148e+00
        92         2       -8.068642e-02
        93         2       -2.053320e+00
        94         2       -1.235333e+00
        95         2        6.997121e-01
        96         2       -2.331676e-01
        97         2        1.310730e+00
        98         2        9.881116e-01
        99         2        6.752686e-01
       100         2        1.223886e+00
         1         3        3.620729e-02
         2         3       -1.619330e+00
         3         3       -2.477371e+00
         4         3       -2.599420e-01
         5         3        8.545955e-01
         6         3       -1.738730e-01
         7         3        7.755732e-01
         8         3       -3.081653e-01
         9         3       -7.715977e-01
        10         3        4.314318e-01
        11         3        1.354893e+00
        12         3       -5.065033e-01
        13         3        4.056210e-01
        14         3        8.187273e-01
        15         3        6.825880e-01
        16         3       -7.645104e-01
        17         3        1.013557e+00
        18         3       -1.167588e+00
        19         3       -1.173391e+00
        20         3        1.356042e-01
        21         3        2.008377e-01
        22         3       -2.136080e+00
        23         3       -5.280644e-01
        24         3       -4.019835e-01
        25         3        5.089188e-01
        26         3       -1.245825e-02
        27         3        3.929708e-01
        28         3        1.496160e+00
        29         3        3.049772e-01
        30         3        3.606144e-02
        31         3        9.436520e-01
        32         3       -1.989302e+00
        33         3        1.453592e-01
        34         3        1.340422e+00
        35         3        6.642451e-01
        36         3       -1.608261e+00
        37         3       -2.377772e+00
        38         3       -9.661339e-01
        39         3       -6.419086e-01
        40         3        2.291025e+00
        41         3       -4.463120e-01
        42         3        1.039889e+00
        43         3       -2.275477e+00
        44         3       -3.410973e-01
        45         3        5.097886e-01
        46         3        1.208082e-01
        47         3       -7.364106e-01
        48         3       -2.506350e+00
        49         3       -1.125258e+00
        50         3        9.336189e-01
        51         3        1.058175e+00
        52         3        6.303101e-01
        53         3        1.469239e+00
        54         3        2.689481e-01
        55         3       -2.314353e-01
        56         3       -2.574805e-01
        57         3        2.312960e-01
        58         3        1.734696e-01
        59         3       -2.450230e-01
        60         3       -5.111008e-01
        61         3        1.782168e+00
        62         3        4.675170e-01
        63         3        2.441317e-01
        64         3       -1.916434e+00
        65         3       -1.574278e+00
        66         3        9.632654e-01
        67         3        7.985890e-01
        68         3       -1.250264e+00
        69         3       -1.600221e+00
        70         3        1.169954e+00
        71         3       -5.424563e-02
        72         3       -7.580285e-01
        73         3        8.951372e-01
        74         3       -3.987404e-01
        75         3       -1.640743e+00
        76         3       -6.633439e-01
        77         3       -7.528797e-01
        78         3       -4.011630e-01
        79         3       -8.907208e-01
        80         3        1.166009e+00
        81         3       -7.158477e-01
        82         3        2.508318e-02
        83         3        6.862311e-01
        84         3       -8.759123e-01
        85         3        1.179113e+00
        86         3        3.566727e-01
        87         3        8.943431e-01
        88         3        6.043541e-01
        89         3        1.244044e-01
        90         3        4.169687e-01
        91         3       -2.024384e+00
        92         3       -1.171778e+00
        93         3        5.240315e-01
        94         3        5.483277e-01
        95         3       -2.838152e+00
        96         3       -5.938505e-01
        97         3       -2.049742e-02
        98         3       -5.799596e-03
        99         3       -5.641928e-01
       100         3        2.894976e-01
         1         4        1.052565e+00
         2         4        5.381426e-01
         3         4        1.703529e+00
         4         4        6.562590e-01
         5         4        9.965429e-01
         6         4       -2.585360e+00
         7         4        7.156714e-01
         8         4        3.551682e-01
         9         4       -6.784262e-01
        10         4        1.922317e-01
        11         4        1.651916e+00
        12         4       -1.348399e+00
        13         4        1.342298e+00
        14         4        1.213732e+00
        15         4        2.409563e-01
        16         4       -1.543960e+00
        17         4        2.166374e-01
        18         4       -7.007131e-01
        19         4        5.096547e-02
        20         4       -3.257306e-01
        21         4        8.041922e-01
        22         4       -4.659541e-01
        23         4       -6.501352e-01
        24         4       -1.172863e+00
        25         4       -8.473669e-01
        26         4       -5.044016e-02
        27         4       -3.575338e-01
        28         4        1.768779e-02
        29         4        3.699541e-02
        30         4       -1.053203e+00
        31         4        5.766573e-01
        32         4       -2.206171e-01
        33         4        3.124937e-02
        34         4        1.029458e+00
        35         4        2.083031e+00
        36         4       -7.303328e-01
        37         4       -5.762361e-01
        38         4       -2.820629e-01
        39         4        8.194977e-02
        40         4       -4.133454e-01
        41         4       -1.455549e+00
        42         4       -1.644974e+00
        43         4        9.409931e-01
        44         4       -1.049458e+00
        45         4       -2.142798e-01
        46         4        1.011963e-01
        47         4       -3.555215e-01
        48         4        1.870170e+00
        49         4       -5.148502e-01
        50         4        5.363566e-01
        51         4        7.911224e-01
        52         4        4.250081e-01
        53         4       -6.770002e-01
        54         4       -6.246991e-01
        55         4        4.156269e-01
        56         4        8.990316e-01
        57         4       -1.983901e+00
        58         4       -4.020696e-02
        59         4       -1.795795e-01
        60         4       -9.035818e-01
        61         4        1.257408e-01
        62         4       -4.397483e-01
        63         4       -1.566154e+00
        64         4       -1.853867e+00
        65         4        1.716628e+00
        66         4        6.070415e-01
        67         4       -1.613476e+00
        68         4       -2.727700e-01
        69         4        2.038769e-01
        70         4       -1.296406e+00
        71         4        3.483381e-01
        72         4        1.521722e+00
        73         4       -8.220763e-02
        74         4       -1.058165e+00
        75         4       -1.213478e+00
        76         4        1.872016e-01
        77         4        1.542917e+00
        78         4       -1.584632e+00
        79         4       -4.427910e-01
        80         4       -6.324252e-02
        81         4        2.372121e-01
        82         4        8.443932e-01
        83         4        2.236085e-01
        84         4       -5.548835e-01
        85         4       -5.616737e-01
        86         4       -1.204034e+00
        87         4        6.831808e-01
        88         4       -3.234681e-01
        89         4        1.876878e+00
        90         4        1.767955e+00
        91         4       -3.299416e-01
        92         4        2.697562e-01
        93         4       -5.818928e-01
        94         4       -5.409910e-01
        95         4       -6.034644e-01
        96         4       -2.424098e+00
        97         4        1.326130e-01
        98         4        1.761408e+00
        99         4        4.056390e-02
       100         4       -3.545545e-01
         1         5       -8.257540e-01
         2         5        1.665736e+00
         3         5       -7.592292e-01
         4         5       -9.529662e-02
         5         5        1.438342e+00
         6         5       -1.163474e+00
         7         5       -3.199131e-01
         8         5       -5.311637e-01
         9         5       -5.357214e-02
        10         5       -9.291324e-01
        11         5       -9.781173e-02
        12         5       -5.292870e-01
        13         5       -7.475811e-03
        14         5       -1.294203e-01
        15         5        2.852914e-01
        16         5       -1.359683e-01
        17         5       -5.249893e-01
        18         5        1.721834e+00
        19         5       -1.290921e-01
        20         5        3.072636e-01
        21         5        2.059152e-01
        22         5       -2.858881e-01
        23         5       -7.897317e-01
        24         5        1.149448e+00
        25         5        8.196327e-01
        26         5       -3.549128e-01
        27         5       -2.842239e-01
        28         5        5.362237e-01
        29         5        9.477795e-01
        30         5       -1.453452e+00
        31         5        1.074742e+00
        32         5       -5.160950e-01
        33         5        1.538397e-01
        34         5        1.394459e+00
        35         5        4.656852e-01
        36         5        4.978318e-01
        37         5        1.736470e+00
        38         5        8.072972e-02
        39         5        6.075040e-01
        40         5        4.627448e-01
        41         5       -1.887996e-01
        42         5        3.372850e-01
        43         5        1.330021e+00
        44         5        2.400892e+00
        45         5       -3.603920e-01
        46         5       -8.704499e-01
        47         5        1.069436e+00
        48         5       -1.188486e-01
        49         5        6.749766e-01
        50         5        6.943500e-01
        51         5        1.534018e+00
        52         5       -1.736360e+00
        53         5       -2.264830e+00
        54         5        2.160383e-02
        55         5       -2.033705e+00
        56         5       -3.660431e-01
        57         5        1.570454e-01
        58         5       -4.725459e-01
        59         5       -9.559197e-02
        60         5       -5.771063e-01
        61         5        5.508443e-01
        62         5        6.854452e-01
        63         5       -5.975405e-01
        64         5        1.836717e+00
        65         5       -9.418063e-01
        66         5        1.488201e+00
        67         5        1.827894e-01
        68         5        3.947936e-01
        69         5       -8.890046e-01
        70         5       -3.429777e-01
        71         5       -1.857908e-01
        72         5       -5.520297e-01
        73         5        1.493092e-01
        74         5       -5.934040e-01
        75         5        1.498644e-01
        76         5        8.568187e-01
        77         5        1.701724e+00
        78         5        7.763841e-01
        79         5       -1.675333e+00
        80         5        6.255493e-01
        81         5       -7.199148e-01
        82         5        1.425328e+00
        83         5       -8.027132e-01
        84         5        1.339119e+00
        85         5       -2.119209e-01
        86         5       -3.042918e-01
        87         5        6.315056e-01
        88         5       -9.345510e-01
        89         5       -1.794590e-01
        90         5       -4.405947e-01
        91         5       -5.343171e-01
        92         5       -9.504766e-01
        93         5       -1.617528e+00
        94         5        1.661067e+00
        95         5       -1.922551e-01
        96         5        7.989870e-01
        97         5        1.773008e-01
        98         5       -5.142016e-01
        99         5        5.801308e-01
       100         5       -1.184735e-01
;

param theta:=
    1       -9.126505e-01
    2       -9.980812e-01
    3       -4.278027e-01
    4        6.229437e-01
    5        3.313997e-02
;
param X_true:=
    1        2.818497e+00
    2        1.042799e+00
    3        4.152320e+00
    4        1.392457e+00
    5       -4.353479e-01
    6       -3.018123e+00
    7       -1.397162e+00
    8       -7.777152e-01
    9        1.291015e+00
   10        1.011159e+00
   11       -8.701707e-01
   12       -2.383363e+00
   13        1.137136e+00
   14        1.734890e+00
   15       -1.511394e+00
   16       -1.487015e+00
   17       -1.718270e+00
   18       -1.213115e+00
   19       -8.593612e-02
   20       -9.010595e-01
   21        8.453812e-01
   22        6.286167e-01
   23       -9.778331e-01
   24        2.128504e+00
   25       -1.703397e-01
   26       -3.689214e+00
   27       -1.770401e+00
   28       -1.483275e-02
   29       -1.459786e+00
   30       -2.562044e+00
   31       -1.556772e+00
   32        1.202555e+00
   33       -1.203427e+00
   34       -1.218933e+00
   35       -4.607644e-01
   36       -2.036555e+00
   37        1.022915e+00
   38       -2.610050e-01
   39        9.048592e-01
   40       -2.311553e+00
   41        3.115128e-01
   42       -2.123341e+00
   43        2.107721e+00
   44        3.455083e-01
   45       -9.112232e-02
   46       -1.037657e-02
   47        1.309409e+00
   48        7.060484e-01
   49       -6.466821e-03
   50        1.270361e+00
   51        1.173675e+00
   52       -1.920591e+00
   53       -4.422225e-01
   54        1.718744e+00
   55        8.803776e-01
   56       -1.824201e+00
   57       -2.244119e+00
   58        9.644239e-02
   59        8.076197e-01
   60        7.540490e-01
   61       -2.637645e-02
   62        6.272804e-01
   63       -1.921392e+00
   64        1.012210e-02
   65        4.127726e+00
   66       -6.144484e-01
   67       -1.233850e+00
   68        2.642291e-01
   69        1.133083e-01
   70        2.514058e-01
   71        2.218613e+00
   72        3.014315e-01
   73       -9.146327e-01
   74        1.547293e+00
   75       -1.549676e+00
   76        3.397636e-01
   77        3.290110e+00
   78       -4.243718e-01
   79        8.901420e-01
   80       -2.337560e+00
   81        1.547312e+00
   82       -2.203064e-01
   83       -3.090517e-01
   84        3.964774e-01
   85       -1.103579e-01
   86       -1.048046e+00
   87       -6.063049e-01
   88        4.213951e-01
   89        2.155160e+00
   90        6.615675e-01
   91       -5.087134e-01
   92       -9.319536e-01
   93        2.138519e+00
   94        1.533417e+00
   95       -8.680613e-02
   96       -1.575724e+00
   97       -2.791373e-01
   98        6.777885e-01
   99       -7.615570e-02
  100       -5.028404e-01
;
param X:=
    1        2.818497e+00
    2        1.042799e+00
    3        4.152320e+00
    4        1.392457e+00
    5        5.763144e-01
    6       -3.018123e+00
    7       -8.669841e-01
    8       -7.777152e-01
    9        3.149574e-01
   10        4.188414e-01
   11       -8.701707e-01
   12       -2.383363e+00
   13        1.137136e+00
   14        1.316287e-01
   15       -1.618855e+00
   16       -1.010869e+00
   17       -1.718270e+00
   18       -1.213115e+00
   19       -8.593612e-02
   20        1.140364e+00
   21        8.453812e-01
   22        6.286167e-01
   23       -9.778331e-01
   24        2.128504e+00
   25       -1.703397e-01
   26       -3.689214e+00
   27        9.538671e-01
   28        1.765136e+00
   29       -2.258359e+00
   30       -3.189117e-01
   31       -1.556772e+00
   32        1.202555e+00
   33       -1.203427e+00
   34       -1.218933e+00
   35        1.645454e+00
   36       -2.036555e+00
   37        1.022915e+00
   38       -1.218175e-01
   39        7.440446e-01
   40       -2.311553e+00
   41        1.234009e+00
   42       -1.267975e+00
   43        2.107721e+00
   44        6.706414e-01
   45       -9.112232e-02
   46       -1.048318e+00
   47        1.309409e+00
   48        7.060484e-01
   49       -6.466821e-03
   50       -3.762564e-01
   51        1.173675e+00
   52       -1.920591e+00
   53       -1.036355e+00
   54       -1.001762e+00
   55       -3.931018e-01
   56       -1.824201e+00
   57        1.064401e+00
   58        9.644239e-02
   59        8.076197e-01
   60        7.540490e-01
   61       -2.637645e-02
   62        7.305587e-01
   63       -2.676799e-01
   64       -8.457014e-01
   65        4.657052e-01
   66       -6.144484e-01
   67       -1.233850e+00
   68        2.642291e-01
   69        1.133083e-01
   70        2.514058e-01
   71       -3.572284e-01
   72        3.014315e-01
   73       -1.591368e-01
   74       -7.064500e-01
   75        1.651054e-01
   76        3.397636e-01
   77        3.290110e+00
   78        8.500917e-01
   79        8.901420e-01
   80       -2.337560e+00
   81        1.547312e+00
   82       -2.203064e-01
   83       -3.090517e-01
   84        3.964774e-01
   85       -1.103579e-01
   86       -7.672490e-01
   87       -4.686791e-01
   88        4.213951e-01
   89        2.155160e+00
   90        6.615675e-01
   91       -1.445087e+00
   92       -9.319536e-01
   93        1.032204e+00
   94       -6.617408e-01
   95       -8.680613e-02
   96        1.253455e+00
   97       -2.791373e-01
   98       -1.853515e+00
   99       -7.615570e-02
  100       -5.028404e-01
;
param outliervec:=
    1    0
    2    0
    3    0
    4    0
    5    1
    6    0
    7    1
    8    0
    9    1
   10    1
   11    0
   12    0
   13    0
   14    1
   15    1
   16    1
   17    0
   18    0
   19    0
   20    1
   21    0
   22    0
   23    0
   24    0
   25    0
   26    0
   27    1
   28    1
   29    1
   30    1
   31    0
   32    0
   33    0
   34    0
   35    1
   36    0
   37    0
   38    1
   39    1
   40    0
   41    1
   42    1
   43    0
   44    1
   45    0
   46    1
   47    0
   48    0
   49    0
   50    1
   51    0
   52    0
   53    1
   54    1
   55    1
   56    0
   57    1
   58    0
   59    0
   60    0
   61    0
   62    1
   63    1
   64    1
   65    1
   66    0
   67    0
   68    0
   69    0
   70    0
   71    1
   72    0
   73    1
   74    1
   75    1
   76    0
   77    0
   78    1
   79    0
   80    0
   81    0
   82    0
   83    0
   84    0
   85    0
   86    1
   87    1
   88    0
   89    0
   90    0
   91    1
   92    0
   93    1
   94    1
   95    0
   96    1
   97    0
   98    1
   99    0
  100    0
;